NAME : local_0
TYPE : ATSP
DIMENSION : 23
EDGE_WEIGHT_TYPE : EXPLICIT
EDGE_WEIGHT_FORMAT : FULL_MATRIX
EDGE_WEIGHT_SECTION
0 10000000 10000000 993 469 589 10000000 10000000 452 994 10000000 10000000 10000000 10000000 1044 825 10000000 647 321 10000000 1132 1091 661 
0 0 304 815 10000000 10000000 654 602 10000000 712 968 10000000 669 10000000 694 10000000 700 10000000 10000000 978 625 10000000 10000000 
0 304 0 653 900 861 680 542 10000000 914 10000000 10000000 729 10000000 418 10000000 680 10000000 10000000 795 805 10000000 992 
0 815 653 0 596 546 10000000 302 959 10000000 959 10000000 10000000 10000000 730 459 383 10000000 10000000 10000000 1021 10000000 10000000 
0 10000000 900 596 0 128 10000000 810 466 10000000 10000000 10000000 10000000 10000000 730 420 997 781 755 10000000 10000000 10000000 680 
0 10000000 861 546 128 0 10000000 785 576 10000000 10000000 10000000 10000000 10000000 667 386 891 819 862 10000000 10000000 10000000 694 
0 654 680 10000000 10000000 10000000 0 10000000 10000000 824 10000000 10000000 256 10000000 789 10000000 10000000 10000000 10000000 597 10000000 10000000 10000000 
0 602 542 302 810 785 10000000 0 10000000 10000000 764 10000000 10000000 10000000 789 739 153 10000000 10000000 10000000 766 10000000 10000000 
0 10000000 10000000 913 466 576 10000000 10000000 0 10000000 10000000 963 10000000 954 10000000 578 10000000 10000000 769 10000000 10000000 10000000 10000000 
0 712 934 10000000 10000000 10000000 824 10000000 10000000 0 10000000 10000000 604 10000000 1203 10000000 10000000 10000000 794 10000000 519 492 10000000 
0 968 10000000 986 10000000 10000000 10000000 764 10000000 10000000 0 730 10000000 1018 10000000 10000000 708 10000000 10000000 10000000 520 10000000 10000000 
0 10000000 10000000 10000000 10000000 10000000 10000000 10000000 958 10000000 730 0 10000000 461 10000000 10000000 10000000 10000000 10000000 10000000 10000000 10000000 10000000 
0 669 729 10000000 10000000 10000000 256 10000000 10000000 604 10000000 10000000 0 10000000 915 10000000 10000000 10000000 10000000 691 968 10000000 10000000 
0 10000000 10000000 10000000 10000000 10000000 10000000 10000000 954 10000000 1009 461 10000000 0 10000000 992 10000000 10000000 10000000 10000000 10000000 10000000 10000000 
0 694 418 730 730 667 789 789 10000000 1156 10000000 10000000 874 10000000 0 950 942 833 10000000 575 10000000 10000000 666 
0 10000000 10000000 459 420 386 10000000 739 578 10000000 10000000 10000000 10000000 992 950 0 787 10000000 10000000 10000000 10000000 10000000 10000000 
0 700 680 383 974 891 10000000 153 10000000 10000000 708 10000000 10000000 10000000 942 787 0 10000000 10000000 10000000 803 10000000 10000000 
0 10000000 10000000 10000000 781 819 10000000 10000000 10000000 10000000 10000000 10000000 10000000 10000000 833 10000000 10000000 0 649 991 10000000 10000000 186 
0 10000000 10000000 10000000 755 862 10000000 10000000 780 793 10000000 10000000 10000000 10000000 10000000 10000000 10000000 649 0 10000000 827 706 718 
0 978 795 10000000 10000000 10000000 597 10000000 10000000 10000000 10000000 10000000 691 10000000 575 10000000 10000000 991 10000000 0 10000000 10000000 867 
0 625 805 1011 10000000 10000000 10000000 811 10000000 519 520 10000000 968 10000000 10000000 10000000 803 10000000 827 10000000 0 702 10000000 
0 10000000 10000000 10000000 10000000 10000000 10000000 10000000 10000000 492 10000000 10000000 10000000 10000000 10000000 10000000 10000000 10000000 706 10000000 702 0 10000000 
0 10000000 10000000 10000000 10000000 10000000 10000000 10000000 10000000 10000000 10000000 10000000 10000000 10000000 10000000 10000000 10000000 10000000 10000000 10000000 10000000 10000000 0 
EOF